gil262_1
0 137 113 205 76 175 236 169 94 247 23 253 237 50 114 87 174 255 18 49 15 202 124 108 210 216 11 185 66 149 30 42 203 91 17 145 24 61 142 73 102 223 141 233 217 43 241 151 214 243 80 154 244 82 120 256 112 3 246 45 150 33 198 93 16 127 157 221 111 167 88 166 200 46 107 40 168 204 196 230 98 161 10 156 164 192 75 228 191 199 57 224 119 110 252 129 104 190 222 53 122 72 170 32 121 239 117 123 248 35 60 208 4 132 34 186 155 140 173 58 103 89 100 259 163 106 131 251 47 194 172 176 152 220 1 258 37 153 116 227 135 130 20 225 84 197 31 219 85 39 229 95 218 77 232 48 162 195 70 182 14 2 160 242 38 215 69 226 143 22 54 209 206 92 125 115 78 180 59 187 188 245 231 64 27 51 96 147 158 189 81 249 74 261 55 235 254 5 90 44 238 148 71 183 193 181 234 97 144 109 63 79 213 159 257 36 52 29 67 5 68 250 25 179 101 260 133 118 201 165 21 126 207 0